\ Model 2E-VRP
\ LP format - for model browsing. Use MPS format to capture full model detail.
Minimize
  0 y[0,0,0] + 167.6305461424021 y[0,0,1] + 47.16990566028301 y[0,0,2]
   + 158.113883008419 y[0,0,3] + 167.6305461424021 y[0,1,0] + 0 y[0,1,1]
   + 205.7304061144099 y[0,1,2] + 106.3014581273465 y[0,1,3]
   + 47.16990566028301 y[0,2,0] + 205.7304061144099 y[0,2,1] + 0 y[0,2,2]
   + 205.2437575177379 y[0,2,3] + 158.113883008419 y[0,3,0]
   + 106.3014581273465 y[0,3,1] + 205.2437575177379 y[0,3,2] + 0 y[0,3,3]
   + 50 Constant
Subject To
 trucks3[0]: - y[0,0,1] - y[0,0,2] + y[0,1,0] + y[0,2,0] = 0
 trucks3[1]: y[0,0,1] - y[0,1,0] - y[0,1,2] + y[0,2,1] = 0
 trucks3[2]: y[0,0,2] + y[0,1,2] - y[0,2,0] - y[0,2,1] = 0
 if_truck_then_hub[0]: - o[0] + y[0,1,0] + y[0,2,0] + y[0,3,0] = 0
 if_truck_then_hub[1]: - o[1] + y[0,0,1] + y[0,2,1] + y[0,3,1] = 0
 if_truck_then_hub[2]: - o[2] + y[0,0,2] + y[0,1,2] + y[0,3,2] = 0
 no_subtours_1[0,0]: y[0,1,0] + y[0,2,0] + y[0,3,0] <= 1
 no_subtours_1[1,0]: y[0,0,1] + y[0,2,1] + y[0,3,1] <= 1
 no_subtours_1[2,0]: y[0,0,2] + y[0,1,2] + y[0,3,2] <= 1
 no_subtours_1[3,0]: y[0,0,3] + y[0,1,3] + y[0,2,3] <= 1
 no_subtours_2[0,0]: y[0,0,1] + y[0,0,2] + y[0,0,3] <= 1
 no_subtours_2[1,0]: y[0,1,0] + y[0,1,2] + y[0,1,3] <= 1
 no_subtours_2[2,0]: y[0,2,0] + y[0,2,1] + y[0,2,3] <= 1
 no_subtours_2[3,0]: y[0,3,0] + y[0,3,1] + y[0,3,2] <= 1
 no_subtours_3[0,1,0]: y[0,0,1] + y[0,1,0] <= 1
 no_subtours_3[0,2,0]: y[0,0,2] + y[0,2,0] <= 1
 no_subtours_3[0,3,0]: y[0,0,3] + y[0,3,0] <= 1
 no_subtours_3[1,0,0]: y[0,0,1] + y[0,1,0] <= 1
 no_subtours_3[1,2,0]: y[0,1,2] + y[0,2,1] <= 1
 no_subtours_3[1,3,0]: y[0,1,3] + y[0,3,1] <= 1
 no_subtours_3[2,0,0]: y[0,0,2] + y[0,2,0] <= 1
 no_subtours_3[2,1,0]: y[0,1,2] + y[0,2,1] <= 1
 no_subtours_3[2,3,0]: y[0,2,3] + y[0,3,2] <= 1
 no_subtours_3[3,0,0]: y[0,0,3] + y[0,3,0] <= 1
 no_subtours_3[3,1,0]: y[0,1,3] + y[0,3,1] <= 1
 no_subtours_3[3,2,0]: y[0,2,3] + y[0,3,2] <= 1
 constraint_17: o[0] + o[1] + o[2] = 3
Bounds
 Constant = 1
Binaries
 o[0] o[1] o[2] y[0,0,0] y[0,0,1] y[0,0,2] y[0,0,3] y[0,1,0] y[0,1,1]
 y[0,1,2] y[0,1,3] y[0,2,0] y[0,2,1] y[0,2,2] y[0,2,3] y[0,3,0] y[0,3,1]
 y[0,3,2] y[0,3,3]
End
